c File: flat150_3_0.col
c
c SOURCE: Joseph Culberson (joe@cs.ualberta.ca)
c DESCRIPTION: Quasi-random coloring problem
c              generated with flatness = 0
c                             probability = 0.048
c                             known coloring = 3
c                             random seed = 1039
c              Creation Date:  Wed Feb 24 10:37:28 1999
c Maximum degree = 8 Minimum degree = 0
c COLOR VERIFICATION: Using the permuted order
c under simple greedy yields the specified
c coloring number
c Color = 3 specified partitions = 3
c p edge 150 360
c cnf created by edge2cnf
p cnf 450 1680
-1 -2 0
-1 -3 0
-2 -3 0
1 2 3 0
-4 -5 0
-4 -6 0
-5 -6 0
4 5 6 0
-7 -8 0
-7 -9 0
-8 -9 0
7 8 9 0
-10 -11 0
-10 -12 0
-11 -12 0
10 11 12 0
-13 -14 0
-13 -15 0
-14 -15 0
13 14 15 0
-16 -17 0
-16 -18 0
-17 -18 0
16 17 18 0
-19 -20 0
-19 -21 0
-20 -21 0
19 20 21 0
-22 -23 0
-22 -24 0
-23 -24 0
22 23 24 0
-25 -26 0
-25 -27 0
-26 -27 0
25 26 27 0
-28 -29 0
-28 -30 0
-29 -30 0
28 29 30 0
-31 -32 0
-31 -33 0
-32 -33 0
31 32 33 0
-34 -35 0
-34 -36 0
-35 -36 0
34 35 36 0
-37 -38 0
-37 -39 0
-38 -39 0
37 38 39 0
-40 -41 0
-40 -42 0
-41 -42 0
40 41 42 0
-43 -44 0
-43 -45 0
-44 -45 0
43 44 45 0
-46 -47 0
-46 -48 0
-47 -48 0
46 47 48 0
-49 -50 0
-49 -51 0
-50 -51 0
49 50 51 0
-52 -53 0
-52 -54 0
-53 -54 0
52 53 54 0
-55 -56 0
-55 -57 0
-56 -57 0
55 56 57 0
-58 -59 0
-58 -60 0
-59 -60 0
58 59 60 0
-61 -62 0
-61 -63 0
-62 -63 0
61 62 63 0
-64 -65 0
-64 -66 0
-65 -66 0
64 65 66 0
-67 -68 0
-67 -69 0
-68 -69 0
67 68 69 0
-70 -71 0
-70 -72 0
-71 -72 0
70 71 72 0
-73 -74 0
-73 -75 0
-74 -75 0
73 74 75 0
-76 -77 0
-76 -78 0
-77 -78 0
76 77 78 0
-79 -80 0
-79 -81 0
-80 -81 0
79 80 81 0
-82 -83 0
-82 -84 0
-83 -84 0
82 83 84 0
-85 -86 0
-85 -87 0
-86 -87 0
85 86 87 0
-88 -89 0
-88 -90 0
-89 -90 0
88 89 90 0
-91 -92 0
-91 -93 0
-92 -93 0
91 92 93 0
-94 -95 0
-94 -96 0
-95 -96 0
94 95 96 0
-97 -98 0
-97 -99 0
-98 -99 0
97 98 99 0
-100 -101 0
-100 -102 0
-101 -102 0
100 101 102 0
-103 -104 0
-103 -105 0
-104 -105 0
103 104 105 0
-106 -107 0
-106 -108 0
-107 -108 0
106 107 108 0
-109 -110 0
-109 -111 0
-110 -111 0
109 110 111 0
-112 -113 0
-112 -114 0
-113 -114 0
112 113 114 0
-115 -116 0
-115 -117 0
-116 -117 0
115 116 117 0
-118 -119 0
-118 -120 0
-119 -120 0
118 119 120 0
-121 -122 0
-121 -123 0
-122 -123 0
121 122 123 0
-124 -125 0
-124 -126 0
-125 -126 0
124 125 126 0
-127 -128 0
-127 -129 0
-128 -129 0
127 128 129 0
-130 -131 0
-130 -132 0
-131 -132 0
130 131 132 0
-133 -134 0
-133 -135 0
-134 -135 0
133 134 135 0
-136 -137 0
-136 -138 0
-137 -138 0
136 137 138 0
-139 -140 0
-139 -141 0
-140 -141 0
139 140 141 0
-142 -143 0
-142 -144 0
-143 -144 0
142 143 144 0
-145 -146 0
-145 -147 0
-146 -147 0
145 146 147 0
-148 -149 0
-148 -150 0
-149 -150 0
148 149 150 0
-151 -152 0
-151 -153 0
-152 -153 0
151 152 153 0
-154 -155 0
-154 -156 0
-155 -156 0
154 155 156 0
-157 -158 0
-157 -159 0
-158 -159 0
157 158 159 0
-160 -161 0
-160 -162 0
-161 -162 0
160 161 162 0
-163 -164 0
-163 -165 0
-164 -165 0
163 164 165 0
-166 -167 0
-166 -168 0
-167 -168 0
166 167 168 0
-169 -170 0
-169 -171 0
-170 -171 0
169 170 171 0
-172 -173 0
-172 -174 0
-173 -174 0
172 173 174 0
-175 -176 0
-175 -177 0
-176 -177 0
175 176 177 0
-178 -179 0
-178 -180 0
-179 -180 0
178 179 180 0
-181 -182 0
-181 -183 0
-182 -183 0
181 182 183 0
-184 -185 0
-184 -186 0
-185 -186 0
184 185 186 0
-187 -188 0
-187 -189 0
-188 -189 0
187 188 189 0
-190 -191 0
-190 -192 0
-191 -192 0
190 191 192 0
-193 -194 0
-193 -195 0
-194 -195 0
193 194 195 0
-196 -197 0
-196 -198 0
-197 -198 0
196 197 198 0
-199 -200 0
-199 -201 0
-200 -201 0
199 200 201 0
-202 -203 0
-202 -204 0
-203 -204 0
202 203 204 0
-205 -206 0
-205 -207 0
-206 -207 0
205 206 207 0
-208 -209 0
-208 -210 0
-209 -210 0
208 209 210 0
-211 -212 0
-211 -213 0
-212 -213 0
211 212 213 0
-214 -215 0
-214 -216 0
-215 -216 0
214 215 216 0
-217 -218 0
-217 -219 0
-218 -219 0
217 218 219 0
-220 -221 0
-220 -222 0
-221 -222 0
220 221 222 0
-223 -224 0
-223 -225 0
-224 -225 0
223 224 225 0
-226 -227 0
-226 -228 0
-227 -228 0
226 227 228 0
-229 -230 0
-229 -231 0
-230 -231 0
229 230 231 0
-232 -233 0
-232 -234 0
-233 -234 0
232 233 234 0
-235 -236 0
-235 -237 0
-236 -237 0
235 236 237 0
-238 -239 0
-238 -240 0
-239 -240 0
238 239 240 0
-241 -242 0
-241 -243 0
-242 -243 0
241 242 243 0
-244 -245 0
-244 -246 0
-245 -246 0
244 245 246 0
-247 -248 0
-247 -249 0
-248 -249 0
247 248 249 0
-250 -251 0
-250 -252 0
-251 -252 0
250 251 252 0
-253 -254 0
-253 -255 0
-254 -255 0
253 254 255 0
-256 -257 0
-256 -258 0
-257 -258 0
256 257 258 0
-259 -260 0
-259 -261 0
-260 -261 0
259 260 261 0
-262 -263 0
-262 -264 0
-263 -264 0
262 263 264 0
-265 -266 0
-265 -267 0
-266 -267 0
265 266 267 0
-268 -269 0
-268 -270 0
-269 -270 0
268 269 270 0
-271 -272 0
-271 -273 0
-272 -273 0
271 272 273 0
-274 -275 0
-274 -276 0
-275 -276 0
274 275 276 0
-277 -278 0
-277 -279 0
-278 -279 0
277 278 279 0
-280 -281 0
-280 -282 0
-281 -282 0
280 281 282 0
-283 -284 0
-283 -285 0
-284 -285 0
283 284 285 0
-286 -287 0
-286 -288 0
-287 -288 0
286 287 288 0
-289 -290 0
-289 -291 0
-290 -291 0
289 290 291 0
-292 -293 0
-292 -294 0
-293 -294 0
292 293 294 0
-295 -296 0
-295 -297 0
-296 -297 0
295 296 297 0
-298 -299 0
-298 -300 0
-299 -300 0
298 299 300 0
-301 -302 0
-301 -303 0
-302 -303 0
301 302 303 0
-304 -305 0
-304 -306 0
-305 -306 0
304 305 306 0
-307 -308 0
-307 -309 0
-308 -309 0
307 308 309 0
-310 -311 0
-310 -312 0
-311 -312 0
310 311 312 0
-313 -314 0
-313 -315 0
-314 -315 0
313 314 315 0
-316 -317 0
-316 -318 0
-317 -318 0
316 317 318 0
-319 -320 0
-319 -321 0
-320 -321 0
319 320 321 0
-322 -323 0
-322 -324 0
-323 -324 0
322 323 324 0
-325 -326 0
-325 -327 0
-326 -327 0
325 326 327 0
-328 -329 0
-328 -330 0
-329 -330 0
328 329 330 0
-331 -332 0
-331 -333 0
-332 -333 0
331 332 333 0
-334 -335 0
-334 -336 0
-335 -336 0
334 335 336 0
-337 -338 0
-337 -339 0
-338 -339 0
337 338 339 0
-340 -341 0
-340 -342 0
-341 -342 0
340 341 342 0
-343 -344 0
-343 -345 0
-344 -345 0
343 344 345 0
-346 -347 0
-346 -348 0
-347 -348 0
346 347 348 0
-349 -350 0
-349 -351 0
-350 -351 0
349 350 351 0
-352 -353 0
-352 -354 0
-353 -354 0
352 353 354 0
-355 -356 0
-355 -357 0
-356 -357 0
355 356 357 0
-358 -359 0
-358 -360 0
-359 -360 0
358 359 360 0
-361 -362 0
-361 -363 0
-362 -363 0
361 362 363 0
-364 -365 0
-364 -366 0
-365 -366 0
364 365 366 0
-367 -368 0
-367 -369 0
-368 -369 0
367 368 369 0
-370 -371 0
-370 -372 0
-371 -372 0
370 371 372 0
-373 -374 0
-373 -375 0
-374 -375 0
373 374 375 0
-376 -377 0
-376 -378 0
-377 -378 0
376 377 378 0
-379 -380 0
-379 -381 0
-380 -381 0
379 380 381 0
-382 -383 0
-382 -384 0
-383 -384 0
382 383 384 0
-385 -386 0
-385 -387 0
-386 -387 0
385 386 387 0
-388 -389 0
-388 -390 0
-389 -390 0
388 389 390 0
-391 -392 0
-391 -393 0
-392 -393 0
391 392 393 0
-394 -395 0
-394 -396 0
-395 -396 0
394 395 396 0
-397 -398 0
-397 -399 0
-398 -399 0
397 398 399 0
-400 -401 0
-400 -402 0
-401 -402 0
400 401 402 0
-403 -404 0
-403 -405 0
-404 -405 0
403 404 405 0
-406 -407 0
-406 -408 0
-407 -408 0
406 407 408 0
-409 -410 0
-409 -411 0
-410 -411 0
409 410 411 0
-412 -413 0
-412 -414 0
-413 -414 0
412 413 414 0
-415 -416 0
-415 -417 0
-416 -417 0
415 416 417 0
-418 -419 0
-418 -420 0
-419 -420 0
418 419 420 0
-421 -422 0
-421 -423 0
-422 -423 0
421 422 423 0
-424 -425 0
-424 -426 0
-425 -426 0
424 425 426 0
-427 -428 0
-427 -429 0
-428 -429 0
427 428 429 0
-430 -431 0
-430 -432 0
-431 -432 0
430 431 432 0
-433 -434 0
-433 -435 0
-434 -435 0
433 434 435 0
-436 -437 0
-436 -438 0
-437 -438 0
436 437 438 0
-439 -440 0
-439 -441 0
-440 -441 0
439 440 441 0
-442 -443 0
-442 -444 0
-443 -444 0
442 443 444 0
-445 -446 0
-445 -447 0
-446 -447 0
445 446 447 0
-448 -449 0
-448 -450 0
-449 -450 0
448 449 450 0
-10 -1 0
-11 -2 0
-12 -3 0
-127 -1 0
-128 -2 0
-129 -3 0
-202 -1 0
-203 -2 0
-204 -3 0
-316 -1 0
-317 -2 0
-318 -3 0
-70 -4 0
-71 -5 0
-72 -6 0
-118 -4 0
-119 -5 0
-120 -6 0
-133 -4 0
-134 -5 0
-135 -6 0
-139 -4 0
-140 -5 0
-141 -6 0
-184 -4 0
-185 -5 0
-186 -6 0
-205 -4 0
-206 -5 0
-207 -6 0
-304 -4 0
-305 -5 0
-306 -6 0
-325 -4 0
-326 -5 0
-327 -6 0
-13 -7 0
-14 -8 0
-15 -9 0
-19 -7 0
-20 -8 0
-21 -9 0
-271 -7 0
-272 -8 0
-273 -9 0
-277 -7 0
-278 -8 0
-279 -9 0
-301 -7 0
-302 -8 0
-303 -9 0
-325 -7 0
-326 -8 0
-327 -9 0
-427 -7 0
-428 -8 0
-429 -9 0
-256 -10 0
-257 -11 0
-258 -12 0
-409 -10 0
-410 -11 0
-411 -12 0
-445 -10 0
-446 -11 0
-447 -12 0
-184 -13 0
-185 -14 0
-186 -15 0
-199 -13 0
-200 -14 0
-201 -15 0
-301 -13 0
-302 -14 0
-303 -15 0
-370 -13 0
-371 -14 0
-372 -15 0
-145 -16 0
-146 -17 0
-147 -18 0
-211 -16 0
-212 -17 0
-213 -18 0
-244 -19 0
-245 -20 0
-246 -21 0
-274 -19 0
-275 -20 0
-276 -21 0
-148 -22 0
-149 -23 0
-150 -24 0
-352 -22 0
-353 -23 0
-354 -24 0
-367 -22 0
-368 -23 0
-369 -24 0
-409 -22 0
-410 -23 0
-411 -24 0
-412 -22 0
-413 -23 0
-414 -24 0
-61 -25 0
-62 -26 0
-63 -27 0
-199 -25 0
-200 -26 0
-201 -27 0
-214 -25 0
-215 -26 0
-216 -27 0
-91 -28 0
-92 -29 0
-93 -30 0
-124 -28 0
-125 -29 0
-126 -30 0
-181 -28 0
-182 -29 0
-183 -30 0
-307 -28 0
-308 -29 0
-309 -30 0
-421 -28 0
-422 -29 0
-423 -30 0
-37 -31 0
-38 -32 0
-39 -33 0
-76 -31 0
-77 -32 0
-78 -33 0
-82 -31 0
-83 -32 0
-84 -33 0
-91 -31 0
-92 -32 0
-93 -33 0
-178 -31 0
-179 -32 0
-180 -33 0
-232 -31 0
-233 -32 0
-234 -33 0
-355 -31 0
-356 -32 0
-357 -33 0
-235 -34 0
-236 -35 0
-237 -36 0
-61 -37 0
-62 -38 0
-63 -39 0
-184 -37 0
-185 -38 0
-186 -39 0
-250 -37 0
-251 -38 0
-252 -39 0
-376 -37 0
-377 -38 0
-378 -39 0
-385 -37 0
-386 -38 0
-387 -39 0
-67 -40 0
-68 -41 0
-69 -42 0
-82 -40 0
-83 -41 0
-84 -42 0
-244 -40 0
-245 -41 0
-246 -42 0
-325 -40 0
-326 -41 0
-327 -42 0
-58 -43 0
-59 -44 0
-60 -45 0
-70 -43 0
-71 -44 0
-72 -45 0
-151 -43 0
-152 -44 0
-153 -45 0
-220 -43 0
-221 -44 0
-222 -45 0
-334 -43 0
-335 -44 0
-336 -45 0
-124 -46 0
-125 -47 0
-126 -48 0
-319 -46 0
-320 -47 0
-321 -48 0
-91 -49 0
-92 -50 0
-93 -51 0
-235 -49 0
-236 -50 0
-237 -51 0
-313 -49 0
-314 -50 0
-315 -51 0
-325 -49 0
-326 -50 0
-327 -51 0
-412 -49 0
-413 -50 0
-414 -51 0
-361 -52 0
-362 -53 0
-363 -54 0
-196 -55 0
-197 -56 0
-198 -57 0
-235 -55 0
-236 -56 0
-237 -57 0
-271 -55 0
-272 -56 0
-273 -57 0
-292 -55 0
-293 -56 0
-294 -57 0
-298 -55 0
-299 -56 0
-300 -57 0
-310 -58 0
-311 -59 0
-312 -60 0
-328 -58 0
-329 -59 0
-330 -60 0
-382 -58 0
-383 -59 0
-384 -60 0
-244 -61 0
-245 -62 0
-246 -63 0
-340 -61 0
-341 -62 0
-342 -63 0
-349 -61 0
-350 -62 0
-351 -63 0
-412 -61 0
-413 -62 0
-414 -63 0
-418 -61 0
-419 -62 0
-420 -63 0
-70 -64 0
-71 -65 0
-72 -66 0
-103 -64 0
-104 -65 0
-105 -66 0
-295 -64 0
-296 -65 0
-297 -66 0
-304 -64 0
-305 -65 0
-306 -66 0
-364 -64 0
-365 -65 0
-366 -66 0
-103 -67 0
-104 -68 0
-105 -69 0
-181 -67 0
-182 -68 0
-183 -69 0
-199 -67 0
-200 -68 0
-201 -69 0
-214 -67 0
-215 -68 0
-216 -69 0
-268 -67 0
-269 -68 0
-270 -69 0
-97 -70 0
-98 -71 0
-99 -72 0
-262 -70 0
-263 -71 0
-264 -72 0
-355 -70 0
-356 -71 0
-357 -72 0
-331 -73 0
-332 -74 0
-333 -75 0
-379 -73 0
-380 -74 0
-381 -75 0
-331 -76 0
-332 -77 0
-333 -78 0
-403 -76 0
-404 -77 0
-405 -78 0
-409 -76 0
-410 -77 0
-411 -78 0
-85 -79 0
-86 -80 0
-87 -81 0
-298 -79 0
-299 -80 0
-300 -81 0
-166 -82 0
-167 -83 0
-168 -84 0
-187 -82 0
-188 -83 0
-189 -84 0
-238 -82 0
-239 -83 0
-240 -84 0
-385 -82 0
-386 -83 0
-387 -84 0
-391 -82 0
-392 -83 0
-393 -84 0
-427 -82 0
-428 -83 0
-429 -84 0
-220 -85 0
-221 -86 0
-222 -87 0
-322 -85 0
-323 -86 0
-324 -87 0
-415 -85 0
-416 -86 0
-417 -87 0
-439 -85 0
-440 -86 0
-441 -87 0
-94 -88 0
-95 -89 0
-96 -90 0
-103 -88 0
-104 -89 0
-105 -90 0
-214 -88 0
-215 -89 0
-216 -90 0
-217 -88 0
-218 -89 0
-219 -90 0
-310 -88 0
-311 -89 0
-312 -90 0
-352 -88 0
-353 -89 0
-354 -90 0
-418 -88 0
-419 -89 0
-420 -90 0
-172 -91 0
-173 -92 0
-174 -93 0
-238 -91 0
-239 -92 0
-240 -93 0
-343 -91 0
-344 -92 0
-345 -93 0
-154 -94 0
-155 -95 0
-156 -96 0
-160 -94 0
-161 -95 0
-162 -96 0
-328 -94 0
-329 -95 0
-330 -96 0
-439 -94 0
-440 -95 0
-441 -96 0
-169 -97 0
-170 -98 0
-171 -99 0
-379 -97 0
-380 -98 0
-381 -99 0
-385 -97 0
-386 -98 0
-387 -99 0
-154 -100 0
-155 -101 0
-156 -102 0
-235 -100 0
-236 -101 0
-237 -102 0
-172 -103 0
-173 -104 0
-174 -105 0
-367 -103 0
-368 -104 0
-369 -105 0
-394 -106 0
-395 -107 0
-396 -108 0
-136 -109 0
-137 -110 0
-138 -111 0
-244 -109 0
-245 -110 0
-246 -111 0
-262 -109 0
-263 -110 0
-264 -111 0
-265 -109 0
-266 -110 0
-267 -111 0
-316 -109 0
-317 -110 0
-318 -111 0
-337 -109 0
-338 -110 0
-339 -111 0
-208 -112 0
-209 -113 0
-210 -114 0
-262 -112 0
-263 -113 0
-264 -114 0
-352 -112 0
-353 -113 0
-354 -114 0
-409 -112 0
-410 -113 0
-411 -114 0
-202 -115 0
-203 -116 0
-204 -117 0
-379 -115 0
-380 -116 0
-381 -117 0
-196 -118 0
-197 -119 0
-198 -120 0
-328 -118 0
-329 -119 0
-330 -120 0
-331 -118 0
-332 -119 0
-333 -120 0
-202 -121 0
-203 -122 0
-204 -123 0
-259 -121 0
-260 -122 0
-261 -123 0
-364 -121 0
-365 -122 0
-366 -123 0
-379 -121 0
-380 -122 0
-381 -123 0
-412 -121 0
-413 -122 0
-414 -123 0
-169 -124 0
-170 -125 0
-171 -126 0
-328 -124 0
-329 -125 0
-330 -126 0
-448 -124 0
-449 -125 0
-450 -126 0
-274 -127 0
-275 -128 0
-276 -129 0
-280 -127 0
-281 -128 0
-282 -129 0
-166 -130 0
-167 -131 0
-168 -132 0
-175 -130 0
-176 -131 0
-177 -132 0
-187 -130 0
-188 -131 0
-189 -132 0
-214 -130 0
-215 -131 0
-216 -132 0
-235 -130 0
-236 -131 0
-237 -132 0
-298 -130 0
-299 -131 0
-300 -132 0
-391 -130 0
-392 -131 0
-393 -132 0
-427 -130 0
-428 -131 0
-429 -132 0
-151 -133 0
-152 -134 0
-153 -135 0
-325 -133 0
-326 -134 0
-327 -135 0
-205 -136 0
-206 -137 0
-207 -138 0
-229 -136 0
-230 -137 0
-231 -138 0
-271 -136 0
-272 -137 0
-273 -138 0
-328 -136 0
-329 -137 0
-330 -138 0
-289 -139 0
-290 -140 0
-291 -141 0
-340 -139 0
-341 -140 0
-342 -141 0
-193 -142 0
-194 -143 0
-195 -144 0
-253 -145 0
-254 -146 0
-255 -147 0
-280 -145 0
-281 -146 0
-282 -147 0
-307 -145 0
-308 -146 0
-309 -147 0
-394 -145 0
-395 -146 0
-396 -147 0
-400 -145 0
-401 -146 0
-402 -147 0
-412 -145 0
-413 -146 0
-414 -147 0
-169 -148 0
-170 -149 0
-171 -150 0
-196 -148 0
-197 -149 0
-198 -150 0
-217 -148 0
-218 -149 0
-219 -150 0
-358 -148 0
-359 -149 0
-360 -150 0
-184 -151 0
-185 -152 0
-186 -153 0
-361 -151 0
-362 -152 0
-363 -153 0
-430 -151 0
-431 -152 0
-432 -153 0
-166 -154 0
-167 -155 0
-168 -156 0
-238 -154 0
-239 -155 0
-240 -156 0
-286 -154 0
-287 -155 0
-288 -156 0
-409 -154 0
-410 -155 0
-411 -156 0
-373 -157 0
-374 -158 0
-375 -159 0
-409 -157 0
-410 -158 0
-411 -159 0
-175 -160 0
-176 -161 0
-177 -162 0
-286 -160 0
-287 -161 0
-288 -162 0
-289 -160 0
-290 -161 0
-291 -162 0
-382 -160 0
-383 -161 0
-384 -162 0
-178 -163 0
-179 -164 0
-180 -165 0
-187 -163 0
-188 -164 0
-189 -165 0
-223 -163 0
-224 -164 0
-225 -165 0
-352 -163 0
-353 -164 0
-354 -165 0
-358 -163 0
-359 -164 0
-360 -165 0
-175 -166 0
-176 -167 0
-177 -168 0
-184 -166 0
-185 -167 0
-186 -168 0
-388 -166 0
-389 -167 0
-390 -168 0
-442 -166 0
-443 -167 0
-444 -168 0
-178 -169 0
-179 -170 0
-180 -171 0
-205 -169 0
-206 -170 0
-207 -171 0
-220 -169 0
-221 -170 0
-222 -171 0
-223 -169 0
-224 -170 0
-225 -171 0
-298 -169 0
-299 -170 0
-300 -171 0
-226 -172 0
-227 -173 0
-228 -174 0
-250 -172 0
-251 -173 0
-252 -174 0
-283 -172 0
-284 -173 0
-285 -174 0
-313 -172 0
-314 -173 0
-315 -174 0
-418 -172 0
-419 -173 0
-420 -174 0
-277 -175 0
-278 -176 0
-279 -177 0
-394 -175 0
-395 -176 0
-396 -177 0
-427 -175 0
-428 -176 0
-429 -177 0
-259 -178 0
-260 -179 0
-261 -180 0
-307 -178 0
-308 -179 0
-309 -180 0
-373 -178 0
-374 -179 0
-375 -180 0
-388 -178 0
-389 -179 0
-390 -180 0
-442 -178 0
-443 -179 0
-444 -180 0
-226 -181 0
-227 -182 0
-228 -183 0
-274 -181 0
-275 -182 0
-276 -183 0
-286 -181 0
-287 -182 0
-288 -183 0
-385 -184 0
-386 -185 0
-387 -186 0
-415 -184 0
-416 -185 0
-417 -186 0
-232 -187 0
-233 -188 0
-234 -189 0
-235 -187 0
-236 -188 0
-237 -189 0
-388 -187 0
-389 -188 0
-390 -189 0
-427 -187 0
-428 -188 0
-429 -189 0
-436 -187 0
-437 -188 0
-438 -189 0
-217 -190 0
-218 -191 0
-219 -192 0
-304 -190 0
-305 -191 0
-306 -192 0
-433 -190 0
-434 -191 0
-435 -192 0
-262 -193 0
-263 -194 0
-264 -195 0
-319 -193 0
-320 -194 0
-321 -195 0
-385 -193 0
-386 -194 0
-387 -195 0
-355 -196 0
-356 -197 0
-357 -198 0
-376 -196 0
-377 -197 0
-378 -198 0
-397 -196 0
-398 -197 0
-399 -198 0
-292 -199 0
-293 -200 0
-294 -201 0
-304 -199 0
-305 -200 0
-306 -201 0
-385 -199 0
-386 -200 0
-387 -201 0
-238 -202 0
-239 -203 0
-240 -204 0
-376 -205 0
-377 -206 0
-378 -207 0
-232 -211 0
-233 -212 0
-234 -213 0
-409 -214 0
-410 -215 0
-411 -216 0
-310 -217 0
-311 -218 0
-312 -219 0
-370 -217 0
-371 -218 0
-372 -219 0
-406 -217 0
-407 -218 0
-408 -219 0
-391 -220 0
-392 -221 0
-393 -222 0
-403 -220 0
-404 -221 0
-405 -222 0
-421 -220 0
-422 -221 0
-423 -222 0
-424 -220 0
-425 -221 0
-426 -222 0
-259 -223 0
-260 -224 0
-261 -225 0
-391 -223 0
-392 -224 0
-393 -225 0
-247 -226 0
-248 -227 0
-249 -228 0
-313 -226 0
-314 -227 0
-315 -228 0
-403 -226 0
-404 -227 0
-405 -228 0
-421 -226 0
-422 -227 0
-423 -228 0
-331 -229 0
-332 -230 0
-333 -231 0
-340 -229 0
-341 -230 0
-342 -231 0
-418 -229 0
-419 -230 0
-420 -231 0
-277 -232 0
-278 -233 0
-279 -234 0
-415 -232 0
-416 -233 0
-417 -234 0
-373 -235 0
-374 -236 0
-375 -237 0
-394 -235 0
-395 -236 0
-396 -237 0
-418 -238 0
-419 -239 0
-420 -240 0
-259 -244 0
-260 -245 0
-261 -246 0
-295 -244 0
-296 -245 0
-297 -246 0
-331 -244 0
-332 -245 0
-333 -246 0
-286 -247 0
-287 -248 0
-288 -249 0
-280 -250 0
-281 -251 0
-282 -252 0
-295 -250 0
-296 -251 0
-297 -252 0
-307 -250 0
-308 -251 0
-309 -252 0
-433 -253 0
-434 -254 0
-435 -255 0
-304 -259 0
-305 -260 0
-306 -261 0
-310 -262 0
-311 -263 0
-312 -264 0
-313 -262 0
-314 -263 0
-315 -264 0
-340 -262 0
-341 -263 0
-342 -264 0
-445 -262 0
-446 -263 0
-447 -264 0
-307 -265 0
-308 -266 0
-309 -267 0
-322 -265 0
-323 -266 0
-324 -267 0
-325 -265 0
-326 -266 0
-327 -267 0
-331 -268 0
-332 -269 0
-333 -270 0
-337 -268 0
-338 -269 0
-339 -270 0
-295 -271 0
-296 -272 0
-297 -273 0
-352 -271 0
-353 -272 0
-354 -273 0
-310 -274 0
-311 -275 0
-312 -276 0
-325 -274 0
-326 -275 0
-327 -276 0
-439 -274 0
-440 -275 0
-441 -276 0
-391 -277 0
-392 -278 0
-393 -279 0
-289 -280 0
-290 -281 0
-291 -282 0
-364 -280 0
-365 -281 0
-366 -282 0
-421 -280 0
-422 -281 0
-423 -282 0
-445 -280 0
-446 -281 0
-447 -282 0
-313 -283 0
-314 -284 0
-315 -285 0
-367 -283 0
-368 -284 0
-369 -285 0
-382 -283 0
-383 -284 0
-384 -285 0
-388 -283 0
-389 -284 0
-390 -285 0
-436 -283 0
-437 -284 0
-438 -285 0
-304 -286 0
-305 -287 0
-306 -288 0
-340 -286 0
-341 -287 0
-342 -288 0
-439 -289 0
-440 -290 0
-441 -291 0
-367 -292 0
-368 -293 0
-369 -294 0
-415 -295 0
-416 -296 0
-417 -297 0
-421 -295 0
-422 -296 0
-423 -297 0
-415 -298 0
-416 -299 0
-417 -300 0
-304 -301 0
-305 -302 0
-306 -303 0
-394 -301 0
-395 -302 0
-396 -303 0
-406 -301 0
-407 -302 0
-408 -303 0
-448 -304 0
-449 -305 0
-450 -306 0
-373 -313 0
-374 -314 0
-375 -315 0
-433 -313 0
-434 -314 0
-435 -315 0
-370 -316 0
-371 -317 0
-372 -318 0
-448 -316 0
-449 -317 0
-450 -318 0
-358 -322 0
-359 -323 0
-360 -324 0
-370 -322 0
-371 -323 0
-372 -324 0
-346 -328 0
-347 -329 0
-348 -330 0
-430 -328 0
-431 -329 0
-432 -330 0
-388 -340 0
-389 -341 0
-390 -342 0
-412 -343 0
-413 -344 0
-414 -345 0
-448 -349 0
-449 -350 0
-450 -351 0
-355 -352 0
-356 -353 0
-357 -354 0
-445 -355 0
-446 -356 0
-447 -357 0
-367 -358 0
-368 -359 0
-369 -360 0
-397 -358 0
-398 -359 0
-399 -360 0
-364 -361 0
-365 -362 0
-366 -363 0
-385 -364 0
-386 -365 0
-387 -366 0
-394 -364 0
-395 -365 0
-396 -366 0
-409 -367 0
-410 -368 0
-411 -369 0
-442 -367 0
-443 -368 0
-444 -369 0
-391 -370 0
-392 -371 0
-393 -372 0
-415 -370 0
-416 -371 0
-417 -372 0
-421 -373 0
-422 -374 0
-423 -375 0
-379 -376 0
-380 -377 0
-381 -378 0
-400 -376 0
-401 -377 0
-402 -378 0
-421 -376 0
-422 -377 0
-423 -378 0
-427 -376 0
-428 -377 0
-429 -378 0
-397 -388 0
-398 -389 0
-399 -390 0
-430 -388 0
-431 -389 0
-432 -390 0
-403 -394 0
-404 -395 0
-405 -396 0
-415 -397 0
-416 -398 0
-417 -399 0
-439 -403 0
-440 -404 0
-441 -405 0
-424 -406 0
-425 -407 0
-426 -408 0
-436 -406 0
-437 -407 0
-438 -408 0
-442 -406 0
-443 -407 0
-444 -408 0
-433 -418 0
-434 -419 0
-435 -420 0
-439 -418 0
-440 -419 0
-441 -420 0
-448 -418 0
-449 -419 0
-450 -420 0
-439 -433 0
-440 -434 0
-441 -435 0
